20 90
0 1 71.4
0 2 64.0
0 3 77.0
0 4 79.5
0 5 34.3
0 6 32.3
0 7 80.6
0 8 58.5
0 9 2.3
0 10 79.9
0 11 75.7
0 12 86.7
0 13 41.6
0 14 65.7
0 15 11.1
0 16 59.5
0 17 74.6
0 18 66.3
0 19 89.9
1 2 51.7
1 3 47.6
1 4 36.9
1 5 44.7
1 6 49.9
1 7 51.6
1 8 41.7
1 9 70.6
1 10 43.7
1 11 70.2
1 12 31.0
1 13 48.3
1 14 56.8
1 15 80.7
1 16 45.3
1 17 20.2
1 18 29.0
1 19 19.4
2 3 92.7
2 4 85.4
2 5 63.6
2 6 32.2
2 7 17.9
2 8 79.1
2 9 62.0
2 10 21.4
2 11 108.4
2 12 39.1
2 13 22.6
2 14 94.2
2 15 75.0
2 16 82.4
2 17 70.1
2 18 73.3
2 19 58.4
3 4 13.2
3 5 43.3
3 6 75.3
3 7 97.3
3 8 18.6
3 9 77.7
3 10 90.2
3 11 26.3
3 12 78.4
3 13 79.6
3 14 18.3
3 15 81.0
3 16 17.7
3 17 28.3
3 18 19.6
3 19 60.1
4 5 45.2
4 6 72.2
4 7 88.1
4 8 23.1
4 9 79.8
4 10 80.5
4 11 39.4
4 12 67.1
4 13 75.1
4 14 29.8
4 15 85.1
4 16 24.3
4 17 16.8
4 18 14.0
4 19 47.5
5 6 36.7
5 7 75.1
5 8 24.7
5 9 34.8
5 10 70.8
5 11 48.1
5 12 69.2
5 13 44.1
5 14 35.2
5 15 40.3
5 16 26.3
5 17 42.0
5 18 32.3
5 19 64.1
6 7 48.3
6 8 58.2
6 9 30.4
6 10 47.8
6 11 84.7
6 12 56.8
6 13 9.6
6 14 71.3
6 15 43.4
6 16 60.8
6 17 61.1
6 18 58.3
6 19 65.5
7 8 86.3
7 9 78.7
7 10 8.6
7 11 116.3
7 12 28.7
7 13 39.0
7 14 102.0
7 15 91.7
7 16 89.9
7 17 71.6
7 18 77.7
7 19 52.0
8 9 59.2
8 10 80.1
8 11 29.9
8 12 72.1
8 13 63.5
8 14 15.7
8 15 62.9
8 16 3.6
8 17 28.1
8 18 15.0
8 19 58.7
9 10 78.1
9 11 77.1
9 12 85.2
9 13 39.7
9 14 66.8
9 15 13.0
9 16 60.3
9 17 74.5
9 18 66.5
9 19 89.0
10 11 110.0
10 12 20.3
10 13 39.1
10 14 95.8
10 15 91.0
10 16 83.7
10 17 63.8
10 18 70.7
10 19 43.4
11 12 101.1
11 13 91.3
11 14 14.3
11 15 76.1
11 16 26.4
11 17 53.0
11 18 41.4
11 19 85.1
12 13 50.1
12 14 87.4
12 15 97.4
12 16 75.7
12 17 50.4
12 18 60.0
12 19 24.2
13 14 77.5
13 15 52.7
13 16 66.5
13 17 62.3
13 18 61.5
13 19 61.8
14 15 67.7
14 16 12.1
14 17 40.8
14 18 28.3
14 19 72.6
15 16 63.3
15 17 82.0
15 18 72.5
15 19 99.6
16 17 31.0
16 18 18.0
16 19 62.0
17 18 13.1
17 19 32.1
18 19 44.3
